p cnf 519 1237
a 310 314 318 321 326 329 334 337 457 344 463 350 355 358 362 365 372 375 379 382 387 390 493 395 401 404 408 411 416 419 423 426 7 13 24 30 2 1 40 18 6 12 35 23 29 50 45 60 55 70 65 80 75 85 90 95 105 100 110 115 120 130 125 135 140 145 150 158 154 166 162 174 170 188 178 183 202 197 193 211 207 226 216 221 231 235 240 245 254 249 258 263 268 277 273 282 287 292 297 301 305 0
d 312 158 166 174 7 0
d 343 457 245 254 2 0
d 331 7 24 231 13 0
d 394 2 493 297 301 13 0
d 348 463 2 0
d 3 2 0
d 4 1 2 0
d 5 1 2 0
d 8 7 0
d 9 6 7 0
d 10 6 7 0
d 11 1 2 6 7 0
d 14 13 0
d 15 12 13 0
d 16 12 13 0
d 17 1 2 6 7 12 13 0
d 19 6 12 0
d 20 18 6 12 0
d 21 18 6 12 0
d 22 1 2 6 7 12 13 18 0
d 25 24 0
d 26 23 24 0
d 27 23 24 0
d 28 1 2 6 7 12 13 18 23 24 0
d 31 30 0
d 32 29 30 0
d 33 29 30 0
d 34 1 2 6 7 12 13 18 23 24 29 30 0
d 36 23 29 0
d 37 35 23 29 0
d 38 35 23 29 0
d 39 1 2 6 7 12 13 18 23 24 29 30 35 0
d 41 18 35 0
d 42 40 18 35 0
d 43 40 18 35 0
d 44 1 2 6 7 12 13 18 23 24 29 30 35 40 0
d 46 7 12 0
d 47 45 7 12 0
d 48 45 7 12 0
d 49 1 2 6 7 12 13 18 23 24 29 30 35 40 45 0
d 51 45 35 0
d 52 50 45 35 0
d 53 50 45 35 0
d 54 1 2 6 7 12 13 18 23 24 29 30 35 40 45 50 0
d 56 6 13 0
d 57 55 6 13 0
d 58 55 6 13 0
d 59 1 2 6 7 12 13 18 23 24 29 30 35 40 45 50 55 0
d 61 55 35 0
d 62 60 55 35 0
d 63 60 55 35 0
d 64 1 2 6 7 12 13 18 23 24 29 30 35 40 45 50 55 60 0
d 66 7 13 0
d 67 65 7 13 0
d 68 65 7 13 0
d 69 1 2 6 7 12 13 18 23 24 29 30 35 40 45 50 55 60 65 0
d 71 65 35 0
d 72 70 65 35 0
d 73 70 65 35 0
d 74 1 2 6 7 12 13 18 23 24 29 30 35 40 45 50 55 60 65 70 0
d 76 24 29 0
d 77 75 24 29 0
d 78 75 24 29 0
d 79 1 2 6 7 12 13 18 23 24 29 30 35 40 45 50 55 60 65 70 75 0
d 81 18 75 0
d 82 80 18 75 0
d 83 80 18 75 0
d 84 1 2 6 7 12 13 18 23 24 29 30 35 40 45 50 55 60 65 70 75 80 0
d 86 45 75 0
d 87 85 45 75 0
d 88 85 45 75 0
d 89 1 2 6 7 12 13 18 23 24 29 30 35 40 45 50 55 60 65 70 75 80 85 0
d 91 55 75 0
d 92 90 55 75 0
d 93 90 55 75 0
d 94 1 2 6 7 12 13 18 23 24 29 30 35 40 45 50 55 60 65 70 75 80 85 90 0
d 96 65 75 0
d 97 95 65 75 0
d 98 95 65 75 0
d 99 1 2 6 7 12 13 18 23 24 29 30 35 40 45 50 55 60 65 70 75 80 85 90 95 0
d 101 23 30 0
d 102 100 23 30 0
d 103 100 23 30 0
d 104 1 2 6 7 12 13 18 23 24 29 30 35 40 45 50 55 60 65 70 75 80 85 90 95 100 0
d 106 18 100 0
d 107 105 18 100 0
d 108 105 18 100 0
d 109 1 2 6 7 12 13 18 23 24 29 30 35 40 45 50 55 60 65 70 75 80 85 90 95 100 105 0
d 111 45 100 0
d 112 110 45 100 0
d 113 110 45 100 0
d 114 1 2 6 7 12 13 18 23 24 29 30 35 40 45 50 55 60 65 70 75 80 85 90 95 100 105 110 0
d 116 55 100 0
d 117 115 55 100 0
d 118 115 55 100 0
d 119 1 2 6 7 12 13 18 23 24 29 30 35 40 45 50 55 60 65 70 75 80 85 90 95 100 105 110 115 0
d 121 65 100 0
d 122 120 65 100 0
d 123 120 65 100 0
d 124 1 2 6 7 12 13 18 23 24 29 30 35 40 45 50 55 60 65 70 75 80 85 90 95 100 105 110 115 120 0
d 126 24 30 0
d 127 125 24 30 0
d 128 125 24 30 0
d 129 1 2 6 7 12 13 18 23 24 29 30 35 40 45 50 55 60 65 70 75 80 85 90 95 100 105 110 115 120 125 0
d 131 18 125 0
d 132 130 18 125 0
d 133 130 18 125 0
d 134 1 2 6 7 12 13 18 23 24 29 30 35 40 45 50 55 60 65 70 75 80 85 90 95 100 105 110 115 120 125 130 0
d 136 45 125 0
d 137 135 45 125 0
d 138 135 45 125 0
d 139 1 2 6 7 12 13 18 23 24 29 30 35 40 45 50 55 60 65 70 75 80 85 90 95 100 105 110 115 120 125 130 135 0
d 141 55 125 0
d 142 140 55 125 0
d 143 140 55 125 0
d 144 1 2 6 7 12 13 18 23 24 29 30 35 40 45 50 55 60 65 70 75 80 85 90 95 100 105 110 115 120 125 130 135 140 0
d 146 65 125 0
d 147 145 65 125 0
d 148 145 65 125 0
d 149 1 2 6 7 12 13 18 23 24 29 30 35 40 45 50 55 60 65 70 75 80 85 90 95 100 105 110 115 120 125 130 135 140 145 0
d 151 150 2 0
d 152 150 2 0
d 153 1 2 6 7 12 13 18 23 24 29 30 35 40 45 50 55 60 65 70 75 80 85 90 95 100 105 110 115 120 125 130 135 140 145 150 0
d 155 154 13 0
d 156 154 13 0
d 157 1 2 6 7 12 13 18 23 24 29 30 35 40 45 50 55 60 65 70 75 80 85 90 95 100 105 110 115 120 125 130 135 140 145 150 154 0
d 159 158 154 0
d 160 158 154 0
d 161 1 2 6 7 12 13 18 23 24 29 30 35 40 45 50 55 60 65 70 75 80 85 90 95 100 105 110 115 120 125 130 135 140 145 150 154 158 0
d 163 162 24 0
d 164 162 24 0
d 165 1 2 6 7 12 13 18 23 24 29 30 35 40 45 50 55 60 65 70 75 80 85 90 95 100 105 110 115 120 125 130 135 140 145 150 154 158 162 0
d 167 166 162 0
d 168 166 162 0
d 169 1 2 6 7 12 13 18 23 24 29 30 35 40 45 50 55 60 65 70 75 80 85 90 95 100 105 110 115 120 125 130 135 140 145 150 154 158 162 166 0
d 171 170 30 0
d 172 170 30 0
d 173 1 2 6 7 12 13 18 23 24 29 30 35 40 45 50 55 60 65 70 75 80 85 90 95 100 105 110 115 120 125 130 135 140 145 150 154 158 162 166 170 0
d 175 174 170 0
d 176 174 170 0
d 177 1 2 6 7 12 13 18 23 24 29 30 35 40 45 50 55 60 65 70 75 80 85 90 95 100 105 110 115 120 125 130 135 140 145 150 154 158 162 166 170 174 0
d 179 7 154 0
d 180 178 7 154 0
d 181 178 7 154 0
d 182 1 2 6 7 12 13 18 23 24 29 30 35 40 45 50 55 60 65 70 75 80 85 90 95 100 105 110 115 120 125 130 135 140 145 150 154 158 162 166 170 174 178 0
d 184 162 170 0
d 185 183 162 170 0
d 186 183 162 170 0
d 187 1 2 6 7 12 13 18 23 24 29 30 35 40 45 50 55 60 65 70 75 80 85 90 95 100 105 110 115 120 125 130 135 140 145 150 154 158 162 166 170 174 178 183 0
d 189 178 183 0
d 190 188 178 183 0
d 191 188 178 183 0
d 192 1 2 6 7 12 13 18 23 24 29 30 35 40 45 50 55 60 65 70 75 80 85 90 95 100 105 110 115 120 125 130 135 140 145 150 154 158 162 166 170 174 178 183 188 0
d 194 193 7 0
d 195 193 7 0
d 196 1 2 6 7 12 13 18 23 24 29 30 35 40 45 50 55 60 65 70 75 80 85 90 95 100 105 110 115 120 125 130 135 140 145 150 154 158 162 166 170 174 178 183 188 193 0
d 198 193 13 0
d 199 197 193 13 0
d 200 197 193 13 0
d 201 1 2 6 7 12 13 18 23 24 29 30 35 40 45 50 55 60 65 70 75 80 85 90 95 100 105 110 115 120 125 130 135 140 145 150 154 158 162 166 170 174 178 183 188 193 197 0
d 203 197 183 0
d 204 202 197 183 0
d 205 202 197 183 0
d 206 1 2 6 7 12 13 18 23 24 29 30 35 40 45 50 55 60 65 70 75 80 85 90 95 100 105 110 115 120 125 130 135 140 145 150 154 158 162 166 170 174 178 183 188 193 197 202 0
d 208 207 7 13 0
d 209 207 7 13 0
d 210 1 2 6 7 12 13 18 23 24 29 30 35 40 45 50 55 60 65 70 75 80 85 90 95 100 105 110 115 120 125 130 135 140 145 150 154 158 162 166 170 174 178 183 188 193 197 202 207 0
d 212 207 183 0
d 213 211 207 183 0
d 214 211 207 183 0
d 215 1 2 6 7 12 13 18 23 24 29 30 35 40 45 50 55 60 65 70 75 80 85 90 95 100 105 110 115 120 125 130 135 140 145 150 154 158 162 166 170 174 178 183 188 193 197 202 207 211 0
d 217 193 154 0
d 218 216 193 154 0
d 219 216 193 154 0
d 220 1 2 6 7 12 13 18 23 24 29 30 35 40 45 50 55 60 65 70 75 80 85 90 95 100 105 110 115 120 125 130 135 140 145 150 154 158 162 166 170 174 178 183 188 193 197 202 207 211 216 0
d 222 24 170 0
d 223 221 24 170 0
d 224 221 24 170 0
d 225 1 2 6 7 12 13 18 23 24 29 30 35 40 45 50 55 60 65 70 75 80 85 90 95 100 105 110 115 120 125 130 135 140 145 150 154 158 162 166 170 174 178 183 188 193 197 202 207 211 216 221 0
d 227 216 221 0
d 228 226 216 221 0
d 229 226 216 221 0
d 230 1 2 6 7 12 13 18 23 24 29 30 35 40 45 50 55 60 65 70 75 80 85 90 95 100 105 110 115 120 125 130 135 140 145 150 154 158 162 166 170 174 178 183 188 193 197 202 207 211 216 221 226 0
d 232 231 170 0
d 233 231 170 0
d 234 1 2 6 7 12 13 18 23 24 29 30 35 40 45 50 55 60 65 70 75 80 85 90 95 100 105 110 115 120 125 130 135 140 145 150 154 158 162 166 170 174 178 183 188 193 197 202 207 211 216 221 226 231 0
d 236 197 221 0
d 237 235 197 221 0
d 238 235 197 221 0
d 239 1 2 6 7 12 13 18 23 24 29 30 35 40 45 50 55 60 65 70 75 80 85 90 95 100 105 110 115 120 125 130 135 140 145 150 154 158 162 166 170 174 178 183 188 193 197 202 207 211 216 221 226 231 235 0
d 241 207 221 0
d 242 240 207 221 0
d 243 240 207 221 0
d 244 1 2 6 7 12 13 18 23 24 29 30 35 40 45 50 55 60 65 70 75 80 85 90 95 100 105 110 115 120 125 130 135 140 145 150 154 158 162 166 170 174 178 183 188 193 197 202 207 211 216 221 226 231 235 240 0
d 246 245 216 0
d 247 245 216 0
d 248 1 2 6 7 12 13 18 23 24 29 30 35 40 45 50 55 60 65 70 75 80 85 90 95 100 105 110 115 120 125 130 135 140 145 150 154 158 162 166 170 174 178 183 188 193 197 202 207 211 216 221 226 231 235 240 245 0
d 250 162 30 0
d 251 249 162 30 0
d 252 249 162 30 0
d 253 1 2 6 7 12 13 18 23 24 29 30 35 40 45 50 55 60 65 70 75 80 85 90 95 100 105 110 115 120 125 130 135 140 145 150 154 158 162 166 170 174 178 183 188 193 197 202 207 211 216 221 226 231 235 240 245 249 0
d 255 254 249 0
d 256 254 249 0
d 257 1 2 6 7 12 13 18 23 24 29 30 35 40 45 50 55 60 65 70 75 80 85 90 95 100 105 110 115 120 125 130 135 140 145 150 154 158 162 166 170 174 178 183 188 193 197 202 207 211 216 221 226 231 235 240 245 249 254 0
d 259 178 249 0
d 260 258 178 249 0
d 261 258 178 249 0
d 262 1 2 6 7 12 13 18 23 24 29 30 35 40 45 50 55 60 65 70 75 80 85 90 95 100 105 110 115 120 125 130 135 140 145 150 154 158 162 166 170 174 178 183 188 193 197 202 207 211 216 221 226 231 235 240 245 249 254 258 0
d 264 197 249 0
d 265 263 197 249 0
d 266 263 197 249 0
d 267 1 2 6 7 12 13 18 23 24 29 30 35 40 45 50 55 60 65 70 75 80 85 90 95 100 105 110 115 120 125 130 135 140 145 150 154 158 162 166 170 174 178 183 188 193 197 202 207 211 216 221 226 231 235 240 245 249 254 258 263 0
d 269 207 249 0
d 270 268 207 249 0
d 271 268 207 249 0
d 272 1 2 6 7 12 13 18 23 24 29 30 35 40 45 50 55 60 65 70 75 80 85 90 95 100 105 110 115 120 125 130 135 140 145 150 154 158 162 166 170 174 178 183 188 193 197 202 207 211 216 221 226 231 235 240 245 249 254 258 263 268 0
d 274 273 24 30 0
d 275 273 24 30 0
d 276 1 2 6 7 12 13 18 23 24 29 30 35 40 45 50 55 60 65 70 75 80 85 90 95 100 105 110 115 120 125 130 135 140 145 150 154 158 162 166 170 174 178 183 188 193 197 202 207 211 216 221 226 231 235 240 245 249 254 258 263 268 273 0
d 278 216 273 0
d 279 277 216 273 0
d 280 277 216 273 0
d 281 1 2 6 7 12 13 18 23 24 29 30 35 40 45 50 55 60 65 70 75 80 85 90 95 100 105 110 115 120 125 130 135 140 145 150 154 158 162 166 170 174 178 183 188 193 197 202 207 211 216 221 226 231 235 240 245 249 254 258 263 268 273 277 0
d 283 178 273 0
d 284 282 178 273 0
d 285 282 178 273 0
d 286 1 2 6 7 12 13 18 23 24 29 30 35 40 45 50 55 60 65 70 75 80 85 90 95 100 105 110 115 120 125 130 135 140 145 150 154 158 162 166 170 174 178 183 188 193 197 202 207 211 216 221 226 231 235 240 245 249 254 258 263 268 273 277 282 0
d 288 197 273 0
d 289 287 197 273 0
d 290 287 197 273 0
d 291 1 2 6 7 12 13 18 23 24 29 30 35 40 45 50 55 60 65 70 75 80 85 90 95 100 105 110 115 120 125 130 135 140 145 150 154 158 162 166 170 174 178 183 188 193 197 202 207 211 216 221 226 231 235 240 245 249 254 258 263 268 273 277 282 287 0
d 293 207 273 0
d 294 292 207 273 0
d 295 292 207 273 0
d 296 1 2 6 7 12 13 18 23 24 29 30 35 40 45 50 55 60 65 70 75 80 85 90 95 100 105 110 115 120 125 130 135 140 145 150 154 158 162 166 170 174 178 183 188 193 197 202 207 211 216 221 226 231 235 240 245 249 254 258 263 268 273 277 282 287 292 0
d 298 297 221 0
d 299 297 221 0
d 300 1 2 6 7 12 13 18 23 24 29 30 35 40 45 50 55 60 65 70 75 80 85 90 95 100 105 110 115 120 125 130 135 140 145 150 154 158 162 166 170 174 178 183 188 193 197 202 207 211 216 221 226 231 235 240 245 249 254 258 263 268 273 277 282 287 292 297 0
d 302 301 193 0
d 303 301 193 0
d 304 1 2 6 7 12 13 18 23 24 29 30 35 40 45 50 55 60 65 70 75 80 85 90 95 100 105 110 115 120 125 130 135 140 145 150 154 158 162 166 170 174 178 183 188 193 197 202 207 211 216 221 226 231 235 240 245 249 254 258 263 268 273 277 282 287 292 297 301 0
d 306 216 249 0
d 307 305 216 249 0
d 308 305 216 249 0
d 309 1 2 6 7 12 13 18 23 24 29 30 35 40 45 50 55 60 65 70 75 80 85 90 95 100 105 110 115 120 125 130 135 140 145 150 154 158 162 166 170 174 178 183 188 193 197 202 207 211 216 221 226 231 235 240 245 249 254 258 263 268 273 277 282 287 292 297 301 305 0
d 311 150 310 0
d 313 150 310 158 166 174 7 0
d 315 150 314 0
d 316 150 314 188 0
d 317 150 310 158 166 174 7 314 188 0
d 319 150 318 0
d 320 150 318 202 0
d 322 150 321 0
d 323 150 321 211 0
d 324 150 318 202 321 211 0
d 325 150 310 158 166 174 7 314 188 318 202 321 211 0
d 327 150 326 0
d 328 150 326 226 0
d 330 150 329 0
d 332 150 329 7 24 231 13 0
d 333 150 326 226 329 7 24 231 13 0
d 335 150 334 0
d 336 150 334 235 0
d 338 150 337 0
d 339 150 337 240 0
d 340 150 334 235 337 240 0
d 341 150 326 226 329 7 24 231 13 334 235 337 240 0
d 342 150 310 158 166 174 7 314 188 318 202 321 211 326 226 329 24 231 13 334 235 337 240 0
d 345 150 344 0
d 346 150 344 258 0
d 347 457 245 254 2 150 344 258 0
d 349 463 2 263 0
d 351 150 350 0
d 352 150 350 268 0
d 353 463 2 263 150 350 268 0
d 354 457 245 254 2 150 344 258 463 263 350 268 0
d 356 150 355 0
d 357 150 355 277 0
d 359 150 358 0
d 360 150 358 282 0
d 361 150 355 277 358 282 0
d 363 150 362 0
d 364 150 362 287 0
d 366 150 365 0
d 367 150 365 292 0
d 368 150 362 287 365 292 0
d 369 150 355 277 358 282 362 287 365 292 0
d 370 457 245 254 2 150 344 258 463 263 350 268 355 277 358 282 362 287 365 292 0
d 371 150 310 158 166 174 7 314 188 318 202 321 211 326 226 329 24 231 13 334 235 337 240 457 245 254 2 344 258 463 263 350 268 355 277 358 282 362 287 365 292 0
d 373 2 372 0
d 374 2 372 158 166 174 7 0
d 376 2 375 0
d 377 2 375 188 0
d 378 2 372 158 166 174 7 375 188 0
d 380 2 379 0
d 381 2 379 202 0
d 383 2 382 0
d 384 2 382 211 0
d 385 2 379 202 382 211 0
d 386 2 372 158 166 174 7 375 188 379 202 382 211 0
d 388 2 387 0
d 389 2 387 226 0
d 391 2 390 0
d 392 2 390 7 24 231 13 0
d 393 2 387 226 390 7 24 231 13 0
d 396 2 395 0
d 397 2 395 240 0
d 398 2 493 297 301 13 395 240 0
d 399 2 387 226 390 7 24 231 13 493 297 301 395 240 0
d 400 2 372 158 166 174 7 375 188 379 202 382 211 387 226 390 24 231 13 493 297 301 395 240 0
d 402 2 401 0
d 403 2 401 305 0
d 405 2 404 0
d 406 2 404 258 0
d 407 2 401 305 404 258 0
d 409 2 408 0
d 410 2 408 263 0
d 412 2 411 0
d 413 2 411 268 0
d 414 2 408 263 411 268 0
d 415 2 401 305 404 258 408 263 411 268 0
d 417 2 416 0
d 418 2 416 277 0
d 420 2 419 0
d 421 2 419 282 0
d 422 2 416 277 419 282 0
d 424 2 423 0
d 425 2 423 287 0
d 427 2 426 0
d 428 2 426 292 0
d 429 2 423 287 426 292 0
d 430 2 416 277 419 282 423 287 426 292 0
d 431 2 401 305 404 258 408 263 411 268 416 277 419 282 423 287 426 292 0
d 432 2 372 158 166 174 7 375 188 379 202 382 211 387 226 390 24 231 13 493 297 301 395 240 401 305 404 258 408 263 411 268 416 277 419 282 423 287 426 292 0
d 433 150 310 158 166 174 7 314 188 318 202 321 211 326 226 329 24 231 13 334 235 337 240 457 245 254 2 344 258 463 263 350 268 355 277 358 282 362 287 365 292 372 375 379 382 387 390 493 297 301 395 401 305 404 408 411 416 419 423 426 0
d 434 1 310 0
d 435 1 310 40 0
d 436 1 314 0
d 437 1 314 50 0
d 438 1 310 40 314 50 0
d 439 1 318 0
d 440 1 318 60 0
d 441 1 321 0
d 442 1 321 70 0
d 443 1 318 60 321 70 0
d 444 1 310 40 314 50 318 60 321 70 0
d 445 1 326 0
d 446 1 326 80 0
d 447 1 329 0
d 448 1 329 85 0
d 449 1 326 80 329 85 0
d 450 1 334 0
d 451 1 334 90 0
d 452 1 337 0
d 453 1 337 95 0
d 454 1 334 90 337 95 0
d 455 1 326 80 329 85 334 90 337 95 0
d 456 1 310 40 314 50 318 60 321 70 326 80 329 85 334 90 337 95 0
d 458 1 457 0
d 459 1 457 105 0
d 460 1 344 0
d 461 1 344 110 0
d 462 1 457 105 344 110 0
d 464 1 463 0
d 465 1 463 115 0
d 466 1 350 0
d 467 1 350 120 0
d 468 1 463 115 350 120 0
d 469 1 457 105 344 110 463 115 350 120 0
d 470 1 355 0
d 471 1 355 130 0
d 472 1 358 0
d 473 1 358 135 0
d 474 1 355 130 358 135 0
d 475 1 362 0
d 476 1 362 140 0
d 477 1 365 0
d 478 1 365 145 0
d 479 1 362 140 365 145 0
d 480 1 355 130 358 135 362 140 365 145 0
d 481 1 457 105 344 110 463 115 350 120 355 130 358 135 362 140 365 145 0
d 482 1 310 40 314 50 318 60 321 70 326 80 329 85 334 90 337 95 457 105 344 110 463 115 350 120 355 130 358 135 362 140 365 145 0
d 483 2 372 40 0
d 484 2 375 50 0
d 485 2 372 40 375 50 0
d 486 2 379 60 0
d 487 2 382 70 0
d 488 2 379 60 382 70 0
d 489 2 372 40 375 50 379 60 382 70 0
d 490 2 387 80 0
d 491 2 390 85 0
d 492 2 387 80 390 85 0
d 494 2 493 0
d 495 2 493 90 0
d 496 2 395 95 0
d 497 2 493 90 395 95 0
d 498 2 387 80 390 85 493 90 395 95 0
d 499 2 372 40 375 50 379 60 382 70 387 80 390 85 493 90 395 95 0
d 500 2 401 105 0
d 501 2 404 0
d 502 2 404 110 0
d 503 2 401 105 404 110 0
d 504 2 408 115 0
d 505 2 411 120 0
d 506 2 408 115 411 120 0
d 507 2 401 105 404 110 408 115 411 120 0
d 508 2 416 130 0
d 509 2 419 135 0
d 510 2 416 130 419 135 0
d 511 2 423 140 0
d 512 2 426 145 0
d 513 2 423 140 426 145 0
d 514 2 416 130 419 135 423 140 426 145 0
d 515 2 401 105 404 110 408 115 411 120 416 130 419 135 423 140 426 145 0
d 516 2 372 40 375 50 379 60 382 70 387 80 390 85 493 90 395 95 401 105 404 110 408 115 411 120 416 130 419 135 423 140 426 145 0
d 517 1 310 40 314 50 318 60 321 70 326 80 329 85 334 90 337 95 457 105 344 110 463 115 350 120 355 130 358 135 362 140 365 145 2 372 375 379 382 387 390 493 395 401 404 408 411 416 419 423 426 0
d 518 150 310 158 166 174 7 314 188 318 202 321 211 326 226 329 24 231 13 334 235 337 240 457 245 254 2 344 258 463 263 350 268 355 277 358 282 362 287 365 292 372 375 379 382 387 390 493 297 301 395 401 305 404 408 411 416 419 423 426 1 40 50 60 70 80 85 90 95 105 110 115 120 130 135 140 145 0
d 519 1 2 6 7 12 13 18 23 24 29 30 35 40 45 50 55 60 65 70 75 80 85 90 95 100 105 110 115 120 125 130 135 140 145 150 154 158 162 166 170 174 178 183 188 193 197 202 207 211 216 221 226 231 235 240 245 249 254 258 263 268 273 277 282 287 292 297 301 305 310 314 318 321 326 329 334 337 457 344 463 350 355 358 362 365 372 375 379 382 387 390 493 395 401 404 408 411 416 419 423 426 0
3 2 0
-3 -2 0
4 -1 -3 0
4 1 3 0
-4 -1 3 0
-4 1 -3 0
5 4 0
-5 -4 0
8 7 0
-8 -7 0
9 -6 -8 0
9 6 8 0
-9 -6 8 0
-9 6 -8 0
10 9 0
-10 -9 0
11 -5 0
11 -10 0
-11 5 10 0
14 13 0
-14 -13 0
15 -12 -14 0
15 12 14 0
-15 -12 14 0
-15 12 -14 0
16 15 0
-16 -15 0
17 -11 0
17 -16 0
-17 11 16 0
-19 6 0
-19 12 0
19 -6 -12 0
20 -18 -19 0
20 18 19 0
-20 -18 19 0
-20 18 -19 0
21 20 0
-21 -20 0
22 -17 0
22 -21 0
-22 17 21 0
25 24 0
-25 -24 0
26 -23 -25 0
26 23 25 0
-26 -23 25 0
-26 23 -25 0
27 26 0
-27 -26 0
28 -22 0
28 -27 0
-28 22 27 0
31 30 0
-31 -30 0
32 -29 -31 0
32 29 31 0
-32 -29 31 0
-32 29 -31 0
33 32 0
-33 -32 0
34 -28 0
34 -33 0
-34 28 33 0
-36 23 0
-36 29 0
36 -23 -29 0
37 -35 -36 0
37 35 36 0
-37 -35 36 0
-37 35 -36 0
38 37 0
-38 -37 0
39 -34 0
39 -38 0
-39 34 38 0
-41 18 0
-41 35 0
41 -18 -35 0
42 -40 -41 0
42 40 41 0
-42 -40 41 0
-42 40 -41 0
43 42 0
-43 -42 0
44 -39 0
44 -43 0
-44 39 43 0
-46 7 0
-46 12 0
46 -7 -12 0
47 -45 -46 0
47 45 46 0
-47 -45 46 0
-47 45 -46 0
48 47 0
-48 -47 0
49 -44 0
49 -48 0
-49 44 48 0
-51 45 0
-51 35 0
51 -45 -35 0
52 -50 -51 0
52 50 51 0
-52 -50 51 0
-52 50 -51 0
53 52 0
-53 -52 0
54 -49 0
54 -53 0
-54 49 53 0
-56 6 0
-56 13 0
56 -6 -13 0
57 -55 -56 0
57 55 56 0
-57 -55 56 0
-57 55 -56 0
58 57 0
-58 -57 0
59 -54 0
59 -58 0
-59 54 58 0
-61 55 0
-61 35 0
61 -55 -35 0
62 -60 -61 0
62 60 61 0
-62 -60 61 0
-62 60 -61 0
63 62 0
-63 -62 0
64 -59 0
64 -63 0
-64 59 63 0
-66 7 0
-66 13 0
66 -7 -13 0
67 -65 -66 0
67 65 66 0
-67 -65 66 0
-67 65 -66 0
68 67 0
-68 -67 0
69 -64 0
69 -68 0
-69 64 68 0
-71 65 0
-71 35 0
71 -65 -35 0
72 -70 -71 0
72 70 71 0
-72 -70 71 0
-72 70 -71 0
73 72 0
-73 -72 0
74 -69 0
74 -73 0
-74 69 73 0
-76 24 0
-76 29 0
76 -24 -29 0
77 -75 -76 0
77 75 76 0
-77 -75 76 0
-77 75 -76 0
78 77 0
-78 -77 0
79 -74 0
79 -78 0
-79 74 78 0
-81 18 0
-81 75 0
81 -18 -75 0
82 -80 -81 0
82 80 81 0
-82 -80 81 0
-82 80 -81 0
83 82 0
-83 -82 0
84 -79 0
84 -83 0
-84 79 83 0
-86 45 0
-86 75 0
86 -45 -75 0
87 -85 -86 0
87 85 86 0
-87 -85 86 0
-87 85 -86 0
88 87 0
-88 -87 0
89 -84 0
89 -88 0
-89 84 88 0
-91 55 0
-91 75 0
91 -55 -75 0
92 -90 -91 0
92 90 91 0
-92 -90 91 0
-92 90 -91 0
93 92 0
-93 -92 0
94 -89 0
94 -93 0
-94 89 93 0
-96 65 0
-96 75 0
96 -65 -75 0
97 -95 -96 0
97 95 96 0
-97 -95 96 0
-97 95 -96 0
98 97 0
-98 -97 0
99 -94 0
99 -98 0
-99 94 98 0
-101 23 0
-101 30 0
101 -23 -30 0
102 -100 -101 0
102 100 101 0
-102 -100 101 0
-102 100 -101 0
103 102 0
-103 -102 0
104 -99 0
104 -103 0
-104 99 103 0
-106 18 0
-106 100 0
106 -18 -100 0
107 -105 -106 0
107 105 106 0
-107 -105 106 0
-107 105 -106 0
108 107 0
-108 -107 0
109 -104 0
109 -108 0
-109 104 108 0
-111 45 0
-111 100 0
111 -45 -100 0
112 -110 -111 0
112 110 111 0
-112 -110 111 0
-112 110 -111 0
113 112 0
-113 -112 0
114 -109 0
114 -113 0
-114 109 113 0
-116 55 0
-116 100 0
116 -55 -100 0
117 -115 -116 0
117 115 116 0
-117 -115 116 0
-117 115 -116 0
118 117 0
-118 -117 0
119 -114 0
119 -118 0
-119 114 118 0
-121 65 0
-121 100 0
121 -65 -100 0
122 -120 -121 0
122 120 121 0
-122 -120 121 0
-122 120 -121 0
123 122 0
-123 -122 0
124 -119 0
124 -123 0
-124 119 123 0
-126 24 0
-126 30 0
126 -24 -30 0
127 -125 -126 0
127 125 126 0
-127 -125 126 0
-127 125 -126 0
128 127 0
-128 -127 0
129 -124 0
129 -128 0
-129 124 128 0
-131 18 0
-131 125 0
131 -18 -125 0
132 -130 -131 0
132 130 131 0
-132 -130 131 0
-132 130 -131 0
133 132 0
-133 -132 0
134 -129 0
134 -133 0
-134 129 133 0
-136 45 0
-136 125 0
136 -45 -125 0
137 -135 -136 0
137 135 136 0
-137 -135 136 0
-137 135 -136 0
138 137 0
-138 -137 0
139 -134 0
139 -138 0
-139 134 138 0
-141 55 0
-141 125 0
141 -55 -125 0
142 -140 -141 0
142 140 141 0
-142 -140 141 0
-142 140 -141 0
143 142 0
-143 -142 0
144 -139 0
144 -143 0
-144 139 143 0
-146 65 0
-146 125 0
146 -65 -125 0
147 -145 -146 0
147 145 146 0
-147 -145 146 0
-147 145 -146 0
148 147 0
-148 -147 0
149 -144 0
149 -148 0
-149 144 148 0
151 -150 -3 0
151 150 3 0
-151 -150 3 0
-151 150 -3 0
152 151 0
-152 -151 0
153 -149 0
153 -152 0
-153 149 152 0
155 -154 -14 0
155 154 14 0
-155 -154 14 0
-155 154 -14 0
156 155 0
-156 -155 0
157 -153 0
157 -156 0
-157 153 156 0
159 -158 -154 0
159 158 154 0
-159 -158 154 0
-159 158 -154 0
160 159 0
-160 -159 0
161 -157 0
161 -160 0
-161 157 160 0
163 -162 -25 0
163 162 25 0
-163 -162 25 0
-163 162 -25 0
164 163 0
-164 -163 0
165 -161 0
165 -164 0
-165 161 164 0
167 -166 -162 0
167 166 162 0
-167 -166 162 0
-167 166 -162 0
168 167 0
-168 -167 0
169 -165 0
169 -168 0
-169 165 168 0
171 -170 -31 0
171 170 31 0
-171 -170 31 0
-171 170 -31 0
172 171 0
-172 -171 0
173 -169 0
173 -172 0
-173 169 172 0
175 -174 -170 0
175 174 170 0
-175 -174 170 0
-175 174 -170 0
176 175 0
-176 -175 0
177 -173 0
177 -176 0
-177 173 176 0
-179 7 0
-179 154 0
179 -7 -154 0
180 -178 -179 0
180 178 179 0
-180 -178 179 0
-180 178 -179 0
181 180 0
-181 -180 0
182 -177 0
182 -181 0
-182 177 181 0
-184 162 0
-184 170 0
184 -162 -170 0
185 -183 -184 0
185 183 184 0
-185 -183 184 0
-185 183 -184 0
186 185 0
-186 -185 0
187 -182 0
187 -186 0
-187 182 186 0
-189 178 0
-189 183 0
189 -178 -183 0
190 -188 -189 0
190 188 189 0
-190 -188 189 0
-190 188 -189 0
191 190 0
-191 -190 0
192 -187 0
192 -191 0
-192 187 191 0
194 -193 -8 0
194 193 8 0
-194 -193 8 0
-194 193 -8 0
195 194 0
-195 -194 0
196 -192 0
196 -195 0
-196 192 195 0
-198 193 0
-198 13 0
198 -193 -13 0
199 -197 -198 0
199 197 198 0
-199 -197 198 0
-199 197 -198 0
200 199 0
-200 -199 0
201 -196 0
201 -200 0
-201 196 200 0
-203 197 0
-203 183 0
203 -197 -183 0
204 -202 -203 0
204 202 203 0
-204 -202 203 0
-204 202 -203 0
205 204 0
-205 -204 0
206 -201 0
206 -205 0
-206 201 205 0
208 -207 -66 0
208 207 66 0
-208 -207 66 0
-208 207 -66 0
209 208 0
-209 -208 0
210 -206 0
210 -209 0
-210 206 209 0
-212 207 0
-212 183 0
212 -207 -183 0
213 -211 -212 0
213 211 212 0
-213 -211 212 0
-213 211 -212 0
214 213 0
-214 -213 0
215 -210 0
215 -214 0
-215 210 214 0
-217 193 0
-217 154 0
217 -193 -154 0
218 -216 -217 0
218 216 217 0
-218 -216 217 0
-218 216 -217 0
219 218 0
-219 -218 0
220 -215 0
220 -219 0
-220 215 219 0
-222 24 0
-222 170 0
222 -24 -170 0
223 -221 -222 0
223 221 222 0
-223 -221 222 0
-223 221 -222 0
224 223 0
-224 -223 0
225 -220 0
225 -224 0
-225 220 224 0
-227 216 0
-227 221 0
227 -216 -221 0
228 -226 -227 0
228 226 227 0
-228 -226 227 0
-228 226 -227 0
229 228 0
-229 -228 0
230 -225 0
230 -229 0
-230 225 229 0
232 -231 -170 0
232 231 170 0
-232 -231 170 0
-232 231 -170 0
233 232 0
-233 -232 0
234 -230 0
234 -233 0
-234 230 233 0
-236 197 0
-236 221 0
236 -197 -221 0
237 -235 -236 0
237 235 236 0
-237 -235 236 0
-237 235 -236 0
238 237 0
-238 -237 0
239 -234 0
239 -238 0
-239 234 238 0
-241 207 0
-241 221 0
241 -207 -221 0
242 -240 -241 0
242 240 241 0
-242 -240 241 0
-242 240 -241 0
243 242 0
-243 -242 0
244 -239 0
244 -243 0
-244 239 243 0
246 -245 -216 0
246 245 216 0
-246 -245 216 0
-246 245 -216 0
247 246 0
-247 -246 0
248 -244 0
248 -247 0
-248 244 247 0
-250 162 0
-250 30 0
250 -162 -30 0
251 -249 -250 0
251 249 250 0
-251 -249 250 0
-251 249 -250 0
252 251 0
-252 -251 0
253 -248 0
253 -252 0
-253 248 252 0
255 -254 -249 0
255 254 249 0
-255 -254 249 0
-255 254 -249 0
256 255 0
-256 -255 0
257 -253 0
257 -256 0
-257 253 256 0
-259 178 0
-259 249 0
259 -178 -249 0
260 -258 -259 0
260 258 259 0
-260 -258 259 0
-260 258 -259 0
261 260 0
-261 -260 0
262 -257 0
262 -261 0
-262 257 261 0
-264 197 0
-264 249 0
264 -197 -249 0
265 -263 -264 0
265 263 264 0
-265 -263 264 0
-265 263 -264 0
266 265 0
-266 -265 0
267 -262 0
267 -266 0
-267 262 266 0
-269 207 0
-269 249 0
269 -207 -249 0
270 -268 -269 0
270 268 269 0
-270 -268 269 0
-270 268 -269 0
271 270 0
-271 -270 0
272 -267 0
272 -271 0
-272 267 271 0
274 -273 -126 0
274 273 126 0
-274 -273 126 0
-274 273 -126 0
275 274 0
-275 -274 0
276 -272 0
276 -275 0
-276 272 275 0
-278 216 0
-278 273 0
278 -216 -273 0
279 -277 -278 0
279 277 278 0
-279 -277 278 0
-279 277 -278 0
280 279 0
-280 -279 0
281 -276 0
281 -280 0
-281 276 280 0
-283 178 0
-283 273 0
283 -178 -273 0
284 -282 -283 0
284 282 283 0
-284 -282 283 0
-284 282 -283 0
285 284 0
-285 -284 0
286 -281 0
286 -285 0
-286 281 285 0
-288 197 0
-288 273 0
288 -197 -273 0
289 -287 -288 0
289 287 288 0
-289 -287 288 0
-289 287 -288 0
290 289 0
-290 -289 0
291 -286 0
291 -290 0
-291 286 290 0
-293 207 0
-293 273 0
293 -207 -273 0
294 -292 -293 0
294 292 293 0
-294 -292 293 0
-294 292 -293 0
295 294 0
-295 -294 0
296 -291 0
296 -295 0
-296 291 295 0
298 -297 -221 0
298 297 221 0
-298 -297 221 0
-298 297 -221 0
299 298 0
-299 -298 0
300 -296 0
300 -299 0
-300 296 299 0
302 -301 -193 0
302 301 193 0
-302 -301 193 0
-302 301 -193 0
303 302 0
-303 -302 0
304 -300 0
304 -303 0
-304 300 303 0
-306 216 0
-306 249 0
306 -216 -249 0
307 -305 -306 0
307 305 306 0
-307 -305 306 0
-307 305 -306 0
308 307 0
-308 -307 0
309 -304 0
309 -308 0
-309 304 308 0
-311 150 0
-311 310 0
311 -150 -310 0
-313 311 0
-313 312 0
313 -311 -312 0
-315 150 0
-315 314 0
315 -150 -314 0
-316 315 0
-316 188 0
316 -315 -188 0
317 -313 0
317 -316 0
-317 313 316 0
-319 150 0
-319 318 0
319 -150 -318 0
-320 319 0
-320 202 0
320 -319 -202 0
-322 150 0
-322 321 0
322 -150 -321 0
-323 322 0
-323 211 0
323 -322 -211 0
324 -320 0
324 -323 0
-324 320 323 0
325 -317 0
325 -324 0
-325 317 324 0
-327 150 0
-327 326 0
327 -150 -326 0
-328 327 0
-328 226 0
328 -327 -226 0
-330 150 0
-330 329 0
330 -150 -329 0
-332 330 0
-332 331 0
332 -330 -331 0
333 -328 0
333 -332 0
-333 328 332 0
-335 150 0
-335 334 0
335 -150 -334 0
-336 335 0
-336 235 0
336 -335 -235 0
-338 150 0
-338 337 0
338 -150 -337 0
-339 338 0
-339 240 0
339 -338 -240 0
340 -336 0
340 -339 0
-340 336 339 0
341 -333 0
341 -340 0
-341 333 340 0
342 -325 0
342 -341 0
-342 325 341 0
-345 150 0
-345 344 0
345 -150 -344 0
-346 345 0
-346 258 0
346 -345 -258 0
347 -343 0
347 -346 0
-347 343 346 0
-349 348 0
-349 263 0
349 -348 -263 0
-351 150 0
-351 350 0
351 -150 -350 0
-352 351 0
-352 268 0
352 -351 -268 0
353 -349 0
353 -352 0
-353 349 352 0
354 -347 0
354 -353 0
-354 347 353 0
-356 150 0
-356 355 0
356 -150 -355 0
-357 356 0
-357 277 0
357 -356 -277 0
-359 150 0
-359 358 0
359 -150 -358 0
-360 359 0
-360 282 0
360 -359 -282 0
361 -357 0
361 -360 0
-361 357 360 0
-363 150 0
-363 362 0
363 -150 -362 0
-364 363 0
-364 287 0
364 -363 -287 0
-366 150 0
-366 365 0
366 -150 -365 0
-367 366 0
-367 292 0
367 -366 -292 0
368 -364 0
368 -367 0
-368 364 367 0
369 -361 0
369 -368 0
-369 361 368 0
370 -354 0
370 -369 0
-370 354 369 0
371 -342 0
371 -370 0
-371 342 370 0
-373 2 0
-373 372 0
373 -2 -372 0
-374 373 0
-374 312 0
374 -373 -312 0
-376 2 0
-376 375 0
376 -2 -375 0
-377 376 0
-377 188 0
377 -376 -188 0
378 -374 0
378 -377 0
-378 374 377 0
-380 2 0
-380 379 0
380 -2 -379 0
-381 380 0
-381 202 0
381 -380 -202 0
-383 2 0
-383 382 0
383 -2 -382 0
-384 383 0
-384 211 0
384 -383 -211 0
385 -381 0
385 -384 0
-385 381 384 0
386 -378 0
386 -385 0
-386 378 385 0
-388 2 0
-388 387 0
388 -2 -387 0
-389 388 0
-389 226 0
389 -388 -226 0
-391 2 0
-391 390 0
391 -2 -390 0
-392 391 0
-392 331 0
392 -391 -331 0
393 -389 0
393 -392 0
-393 389 392 0
-396 2 0
-396 395 0
396 -2 -395 0
-397 396 0
-397 240 0
397 -396 -240 0
398 -394 0
398 -397 0
-398 394 397 0
399 -393 0
399 -398 0
-399 393 398 0
400 -386 0
400 -399 0
-400 386 399 0
-402 2 0
-402 401 0
402 -2 -401 0
-403 402 0
-403 305 0
403 -402 -305 0
405 -2 404 0
405 2 -404 0
-405 -2 -404 0
-405 2 404 0
-406 405 0
-406 258 0
406 -405 -258 0
407 -403 0
407 -406 0
-407 403 406 0
-409 2 0
-409 408 0
409 -2 -408 0
-410 409 0
-410 263 0
410 -409 -263 0
-412 2 0
-412 411 0
412 -2 -411 0
-413 412 0
-413 268 0
413 -412 -268 0
414 -410 0
414 -413 0
-414 410 413 0
415 -407 0
415 -414 0
-415 407 414 0
-417 2 0
-417 416 0
417 -2 -416 0
-418 417 0
-418 277 0
418 -417 -277 0
-420 2 0
-420 419 0
420 -2 -419 0
-421 420 0
-421 282 0
421 -420 -282 0
422 -418 0
422 -421 0
-422 418 421 0
-424 2 0
-424 423 0
424 -2 -423 0
-425 424 0
-425 287 0
425 -424 -287 0
-427 2 0
-427 426 0
427 -2 -426 0
-428 427 0
-428 292 0
428 -427 -292 0
429 -425 0
429 -428 0
-429 425 428 0
430 -422 0
430 -429 0
-430 422 429 0
431 -415 0
431 -430 0
-431 415 430 0
432 -400 0
432 -431 0
-432 400 431 0
433 -371 0
433 -432 0
-433 371 432 0
-434 1 0
-434 310 0
434 -1 -310 0
-435 434 0
-435 40 0
435 -434 -40 0
-436 1 0
-436 314 0
436 -1 -314 0
-437 436 0
-437 50 0
437 -436 -50 0
438 -435 0
438 -437 0
-438 435 437 0
-439 1 0
-439 318 0
439 -1 -318 0
-440 439 0
-440 60 0
440 -439 -60 0
-441 1 0
-441 321 0
441 -1 -321 0
-442 441 0
-442 70 0
442 -441 -70 0
443 -440 0
443 -442 0
-443 440 442 0
444 -438 0
444 -443 0
-444 438 443 0
-445 1 0
-445 326 0
445 -1 -326 0
-446 445 0
-446 80 0
446 -445 -80 0
-447 1 0
-447 329 0
447 -1 -329 0
-448 447 0
-448 85 0
448 -447 -85 0
449 -446 0
449 -448 0
-449 446 448 0
-450 1 0
-450 334 0
450 -1 -334 0
-451 450 0
-451 90 0
451 -450 -90 0
-452 1 0
-452 337 0
452 -1 -337 0
-453 452 0
-453 95 0
453 -452 -95 0
454 -451 0
454 -453 0
-454 451 453 0
455 -449 0
455 -454 0
-455 449 454 0
456 -444 0
456 -455 0
-456 444 455 0
-458 1 0
-458 457 0
458 -1 -457 0
-459 458 0
-459 105 0
459 -458 -105 0
-460 1 0
-460 344 0
460 -1 -344 0
-461 460 0
-461 110 0
461 -460 -110 0
462 -459 0
462 -461 0
-462 459 461 0
-464 1 0
-464 463 0
464 -1 -463 0
-465 464 0
-465 115 0
465 -464 -115 0
-466 1 0
-466 350 0
466 -1 -350 0
-467 466 0
-467 120 0
467 -466 -120 0
468 -465 0
468 -467 0
-468 465 467 0
469 -462 0
469 -468 0
-469 462 468 0
-470 1 0
-470 355 0
470 -1 -355 0
-471 470 0
-471 130 0
471 -470 -130 0
-472 1 0
-472 358 0
472 -1 -358 0
-473 472 0
-473 135 0
473 -472 -135 0
474 -471 0
474 -473 0
-474 471 473 0
-475 1 0
-475 362 0
475 -1 -362 0
-476 475 0
-476 140 0
476 -475 -140 0
-477 1 0
-477 365 0
477 -1 -365 0
-478 477 0
-478 145 0
478 -477 -145 0
479 -476 0
479 -478 0
-479 476 478 0
480 -474 0
480 -479 0
-480 474 479 0
481 -469 0
481 -480 0
-481 469 480 0
482 -456 0
482 -481 0
-482 456 481 0
-483 373 0
-483 40 0
483 -373 -40 0
-484 376 0
-484 50 0
484 -376 -50 0
485 -483 0
485 -484 0
-485 483 484 0
-486 380 0
-486 60 0
486 -380 -60 0
-487 383 0
-487 70 0
487 -383 -70 0
488 -486 0
488 -487 0
-488 486 487 0
489 -485 0
489 -488 0
-489 485 488 0
-490 388 0
-490 80 0
490 -388 -80 0
-491 391 0
-491 85 0
491 -391 -85 0
492 -490 0
492 -491 0
-492 490 491 0
-494 2 0
-494 493 0
494 -2 -493 0
-495 494 0
-495 90 0
495 -494 -90 0
-496 396 0
-496 95 0
496 -396 -95 0
497 -495 0
497 -496 0
-497 495 496 0
498 -492 0
498 -497 0
-498 492 497 0
499 -489 0
499 -498 0
-499 489 498 0
-500 402 0
-500 105 0
500 -402 -105 0
-501 2 0
-501 404 0
501 -2 -404 0
-502 501 0
-502 110 0
502 -501 -110 0
503 -500 0
503 -502 0
-503 500 502 0
-504 409 0
-504 115 0
504 -409 -115 0
-505 412 0
-505 120 0
505 -412 -120 0
506 -504 0
506 -505 0
-506 504 505 0
507 -503 0
507 -506 0
-507 503 506 0
-508 417 0
-508 130 0
508 -417 -130 0
-509 420 0
-509 135 0
509 -420 -135 0
510 -508 0
510 -509 0
-510 508 509 0
-511 424 0
-511 140 0
511 -424 -140 0
-512 427 0
-512 145 0
512 -427 -145 0
513 -511 0
513 -512 0
-513 511 512 0
514 -510 0
514 -513 0
-514 510 513 0
515 -507 0
515 -514 0
-515 507 514 0
516 -499 0
516 -515 0
-516 499 515 0
517 -482 0
517 -516 0
-517 482 516 0
518 -433 -517 0
518 433 517 0
-518 -433 517 0
-518 433 -517 0
519 -309 0
519 -518 0
-519 309 518 0
519 0
